7885507163454612525012,10,1,2,04,10,1,2,02,9,1,2,011,14,1,2,09,1,1,2,07,1,1,2,01,6,1,2,01,1,1,2,013,8,1,2,02,9,1,2,011,5,1,2,03,11,1,2,010,4,1,2,011,7,1,2,09,4,1,2,013,11,1,2,02,6,1,2,03,12,1,2,09,4,1,2,011,7,1,2,08,5,1,2,09,8,1,2,010,2,1,2,09,15,1,2,08,1,1,2,014,13,1,2,010,10,1,2,013,9,1,2,09,11,1,2,08,7,1,2,010,4,1,2,07,1,1,2,05,11,1,2,015,8,1,2,08,4,1,2,05,12,1,2,06,2,1,2,07,1,1,2,02,8,1,2,06,14,1,2,012,10,1,2,03,3,1,2,04,6,1,2,04,7,1,2,07,1,1,2,011,7,1,2,05,4,1,2,02,9,1,2,01,5,1,2,04,15,1,2,0